NAME : ClusterId_260 
COMMENT : (Gillet and Johnson) 
TYPE : CVRP 
DIMENSION : 7 
EDGE_WEIGHT_TYPE : EUC_2D 
CAPACITY : 500 
NODE_COORD_SECTION 
260 40 -80 
36 37 -90 
240 44 -84 
78 79 -62 
92 71 -61 
94 66 -48 
47 59 -49 
DEMAND_SECTION 
260 200
36 9
240 96
78 8
92 45
94 4
47 32
DEPOT_SECTION 
260
 -1
EOF